60 69 11 19 46 83 89 95 
37 57 2 87 53 35 77 
36 30 32 34 58 
31 65 78 4 74 
73 72 79 56 80 
86 99 84 6 68 70 
7 27 54 21 100 93 
81 64 49 10 63 
96 61 22 41 25 
59 15 5 8 71 
94 92 98 38 75 28 
47 90 20 9 66 82 
43 40 48 13 1 
45 44 16 14 97 85 17 18 
39 76 29 3 55 26 
91 42 67 12 24 50 
51 62 88 52 
33 23 

